p wcnf 141 282 283 
1 -52 94 0 
1 -56 -52 0 
1 45 89 0 
1 -65 -113 0 
1 -136 -105 0 
1 36 -84 0 
1 -94 -82 0 
1 13 -27 0 
1 -122 -1 0 
1 66 -46 0 
1 -27 99 0 
1 40 -101 0 
1 56 1 0 
1 123 32 0 
1 -28 -30 0 
1 -52 -44 0 
1 134 96 0 
1 -40 133 0 
1 -78 -80 0 
1 -47 33 0 
1 -55 78 0 
1 -121 -11 0 
1 68 -130 0 
1 103 132 0 
1 4 138 0 
1 46 -89 0 
1 -8 -89 0 
1 37 -20 0 
1 -100 8 0 
1 -29 51 0 
1 -4 -6 0 
1 56 -77 0 
1 -41 15 0 
1 30 116 0 
1 -78 39 0 
1 6 -127 0 
1 -38 -99 0 
1 28 127 0 
1 110 -92 0 
1 68 -6 0 
1 -115 41 0 
1 -30 -71 0 
1 52 127 0 
1 -119 41 0 
1 66 57 0 
1 -45 105 0 
1 -15 -124 0 
1 -106 21 0 
1 95 -73 0 
1 -16 135 0 
1 -100 -117 0 
1 -75 -116 0 
1 48 -141 0 
1 -102 51 0 
1 103 138 0 
1 -104 -101 0 
1 105 -130 0 
1 53 -27 0 
1 -139 -63 0 
1 67 7 0 
1 87 -80 0 
1 -86 122 0 
1 -141 139 0 
1 -27 -110 0 
1 4 -120 0 
1 -14 -72 0 
1 132 -64 0 
1 -127 17 0 
1 8 -99 0 
1 -97 -66 0 
1 17 103 0 
1 -124 48 0 
1 -60 34 0 
1 81 20 0 
1 -71 -109 0 
1 -66 77 0 
1 55 108 0 
1 16 9 0 
1 -32 -10 0 
1 100 24 0 
1 -100 -33 0 
1 -17 81 0 
1 -99 -70 0 
1 -128 98 0 
1 -35 49 0 
1 10 -35 0 
1 -94 60 0 
1 -11 -20 0 
1 18 -90 0 
1 -58 72 0 
1 19 -58 0 
1 139 38 0 
1 71 69 0 
1 -61 40 0 
1 108 121 0 
1 -26 -118 0 
1 5 134 0 
1 95 42 0 
1 -132 36 0 
1 17 -99 0 
1 61 76 0 
1 -60 124 0 
1 -111 110 0 
1 15 63 0 
1 -114 -77 0 
1 112 104 0 
1 -54 99 0 
1 115 15 0 
1 119 77 0 
1 68 47 0 
1 -90 -124 0 
1 -141 121 0 
1 108 91 0 
1 -64 -92 0 
1 17 -12 0 
1 -102 72 0 
1 -20 78 0 
1 64 55 0 
1 -13 -75 0 
1 104 122 0 
1 -107 75 0 
1 -49 -34 0 
1 -100 -18 0 
1 137 27 0 
1 55 17 0 
1 50 -37 0 
1 99 -7 0 
1 -111 120 0 
1 118 -97 0 
1 -103 -7 0 
1 -130 -39 0 
1 23 116 0 
1 -80 127 0 
1 -20 -65 0 
1 42 99 0 
1 106 35 0 
1 80 126 0 
1 76 -117 0 
1 -13 72 0 
1 -60 -106 0 
1 -124 -46 0 
1 131 -1 0 
1 101 -89 0 
1 -130 98 0 
1 56 -50 0 
1 25 77 0 
1 -9 51 0 
1 137 115 0 
1 -31 78 0 
1 22 18 0 
1 -57 -29 0 
1 -127 -93 0 
1 62 -29 0 
1 134 106 0 
1 108 -125 0 
1 -28 -54 0 
1 64 -132 0 
1 -79 15 0 
1 -136 118 0 
1 -52 117 0 
1 -8 60 0 
1 -103 -27 0 
1 119 46 0 
1 75 -128 0 
1 132 7 0 
1 5 -135 0 
1 -22 -78 0 
1 -17 -35 0 
1 -55 -104 0 
1 58 91 0 
1 -91 -138 0 
1 -13 -32 0 
1 99 -22 0 
1 -44 12 0 
1 8 99 0 
1 45 85 0 
1 34 -97 0 
1 45 54 0 
1 -2 122 0 
1 -97 1 0 
1 23 -20 0 
1 -105 74 0 
1 90 -26 0 
1 86 28 0 
1 -100 51 0 
1 32 -61 0 
1 2 84 0 
1 -102 38 0 
1 92 68 0 
1 78 104 0 
1 -125 -59 0 
1 -135 111 0 
1 22 -95 0 
1 136 27 0 
1 -48 104 0 
1 -83 16 0 
1 -83 106 0 
1 121 -67 0 
1 126 128 0 
1 88 -5 0 
1 -129 119 0 
1 24 67 0 
1 99 94 0 
1 76 113 0 
1 73 -97 0 
1 61 -135 0 
1 -76 -24 0 
1 30 -109 0 
1 -59 63 0 
1 10 46 0 
1 92 -35 0 
1 105 77 0 
1 71 136 0 
1 16 -104 0 
1 -24 -20 0 
1 51 130 0 
1 11 -68 0 
1 -118 -46 0 
1 -49 -68 0 
1 85 7 0 
1 86 -85 0 
1 44 51 0 
1 44 -29 0 
1 -57 -117 0 
1 -95 36 0 
1 23 -92 0 
1 -8 -22 0 
1 -56 -9 0 
1 53 -25 0 
1 -117 55 0 
1 -42 57 0 
1 -33 82 0 
1 -98 -121 0 
1 54 -47 0 
1 122 -117 0 
1 -26 -102 0 
1 18 124 0 
1 23 -62 0 
1 68 -33 0 
1 -110 72 0 
1 -18 115 0 
1 -58 13 0 
1 66 -141 0 
1 -128 106 0 
1 -129 -53 0 
1 -12 49 0 
1 -41 106 0 
1 -91 -84 0 
1 46 -78 0 
1 107 -89 0 
1 -96 -22 0 
1 -85 141 0 
1 117 8 0 
1 89 51 0 
1 2 70 0 
1 16 -84 0 
1 40 -123 0 
1 -133 -83 0 
1 -31 -124 0 
1 121 -2 0 
1 83 38 0 
1 94 25 0 
1 -19 -9 0 
1 16 103 0 
1 31 125 0 
1 -107 -31 0 
1 -112 19 0 
1 84 75 0 
1 35 -74 0 
1 -25 -6 0 
1 3 -8 0 
1 18 86 0 
1 -60 28 0 
1 -77 35 0 
1 30 -39 0 
1 -72 -127 0 
1 101 37 0 
1 101 -16 0 
1 -77 -111 0 
1 -79 -59 0 
1 -89 9 0 
1 -75 -53 0 
